benchmarks/VRPTW/TSPTW/solution/n20w180.004.txt.solution
1 19 11 4 18 9 14 20 3 8 12 5 21 2 15 16 10 17 7 13 6 
201
